unsat
(:added-eqs                       17104
 :arith-eq-adapter                155
 :arith-bound-propagations-lp     1169
 :arith-conflicts                 1294
 :arith-diseq                     6691
 :arith-fixed-eqs                 2982
 :arith-gcd-calls                 34
 :arith-grobner-calls             400
 :arith-grobner-conflicts         31
 :arith-horner-calls              212
 :arith-horner-cross-nested-forms 1554
 :arith-lower                     6850
 :arith-make-feasible             6578
 :arith-max-columns               112
 :arith-max-rows                  52
 :arith-nla-add-bounds            29
 :arith-nla-lemmas                875
 :arith-nla-propagate-bounds      145
 :arith-nla-propagate-eq          4195
 :arith-nra-calls                 776
 :arith-offset-eqs                2071
 :arith-patches                   34
 :arith-patches-success           34
 :arith-upper                     11307
 :binary-propagations             33132
 :conflicts                       1491
 :decisions                       21361
 :del-clause                      1847
 :elim-unconstrained              12
 :final-checks                    1010
 :max-memory                      43.26
 :memory                          30.29
 :minimized-lits                  2948
 :mk-bool-var                     988
 :mk-clause                       2292
 :mk-clause-binary                513
 :nlsat-conflicts                 33566
 :nlsat-decisions                 620
 :nlsat-irrational-assignments    1
 :nlsat-propagations              322488
 :nlsat-stages                    113346
 :num-allocs                      2853784030
 :num-checks                      1
 :propagations                    60793
 :restarts                        13
 :rlimit-count                    4795474
 :sat-backjumps                   501
 :sat-conflicts                   501
 :sat-decisions                   1806
 :sat-del-clause                  13746
 :sat-elim-bool-vars-res          2458
 :sat-elim-clauses                349
 :sat-elim-literals               553
 :sat-minimized-lits              1309
 :sat-mk-clause-2ary              8355
 :sat-mk-clause-3ary              3520
 :sat-mk-clause-nary              21148
 :sat-mk-var                      5246
 :sat-probing-assigned            65
 :sat-propagations-2ary           70926
 :sat-propagations-nary           76631
 :sat-restarts                    36
 :sat-scc-elim-binary             55
 :sat-scc-elim-vars               66
 :sat-subs-resolution             224
 :sat-subs-resolution-dyn         233
 :sat-subsumed                    2564
 :sat-units                       97
 :time                            1.66
 :total-time                      1.68)
